0 45
0 147
0 511
0 512
0 717
0 718
0 759
0 766
0 771
0 988
1 89
1 217
1 305
1 306
1 572
1 574
1 667
1 668
2 59
2 164
2 273
2 321
2 330
2 331
2 437
2 591
3 19
3 21
3 98
3 99
3 338
3 412
3 415
3 588
4 81
4 82
4 103
4 129
4 271
4 489
4 859
4 860
5 25
5 38
5 39
5 43
5 70
5 354
5 481
5 872
6 8
6 12
6 18
6 320
6 592
6 669
6 670
7 47
7 132
7 133
7 154
7 188
7 214
7 566
8 18
8 89
8 306
8 307
8 409
8 811
9 37
9 92
9 96
9 320
9 812
9 829
9 830
10 38
10 43
10 62
10 65
10 177
10 263
10 857
11 47
11 84
11 90
11 135
11 298
11 949
12 94
12 197
12 466
12 586
12 587
13 77
13 115
13 211
13 250
13 561
13 562
14 124
14 148
14 149
14 267
14 296
14 297
15 34
15 86
15 248
15 302
15 643
15 777
16 52
16 159
16 456
16 786
16 802
16 939
17 32
17 94
17 162
17 318
17 319
17 645
18 72
18 261
18 320
18 912
19 56
19 57
19 116
19 398
19 671
20 337
20 413
20 672
20 673
20 674
20 836
21 58
21 95
21 479
21 690
21 691
22 33
22 111
22 242
22 469
22 846
22 847
23 24
23 225
23 262
23 269
23 486
23 852
24 28
24 174
24 270
24 713
24 967
25 112
25 113
25 353
25 389
25 899
26 119
26 149
26 401
26 404
26 477
27 367
27 454
27 542
27 543
27 878
28 59
28 202
28 439
28 923
29 49
29 213
29 369
29 557
29 640
30 69
30 70
30 179
30 181
30 237
31 86
31 240
31 559
31 643
31 959
32 94
32 110
32 218
32 646
33 61
33 346
33 647
33 894
34 238
34 549
34 664
34 665
35 86
35 87
35 248
35 666
35 907
36 89
36 122
36 217
36 260
36 689
37 96
37 221
37 589
37 690
38 80
38 81
38 83
39 80
39 118
39 257
39 692
40 123
40 195
40 654
40 655
40 699
41 55
41 133
41 154
41 577
41 708
42 101
42 225
42 269
42 484
42 713
43 175
43 271
43 714
44 244
44 283
44 451
44 651
44 986
45 298
45 516
45 733
45 767
46 47
46 74
46 131
46 500
46 784
47 74
47 785
48 159
48 299
48 556
48 786
48 787
49 50
49 53
49 240
49 303
50 71
50 644
50 645
50 790
51 127
51 154
51 307
51 416
51 706
52 361
52 801
52 802
52 990
53 54
53 160
53 314
53 370
54 185
54 314
54 315
54 316
55 498
55 709
55 815
55 816
56 197
56 467
56 585
56 828
57 79
57 116
57 670
57 829
58 99
58 100
58 225
58 837
59 168
59 224
59 839
60 134
60 175
60 427
60 722
60 854
61 111
61 176
61 464
61 855
62 112
62 177
62 472
62 856
63 64
63 254
63 345
63 348
63 480
64 255
64 349
64 481
64 911
65 81
65 82
65 199
65 858
66 103
66 189
66 350
66 499
66 860
67 276
67 355
67 607
67 724
67 869
68 109
68 179
68 180
68 352
68 357
69 70
69 113
69 181
69 187
70 118
70 680
71 381
71 385
71 386
72 92
72 307
72 416
73 135
73 434
73 435
73 920
74 428
74 436
75 244
75 448
75 449
75 450
76 184
76 196
76 231
76 380
77 88
77 241
77 305
78 152
78 403
78 477
78 903
79 116
79 412
79 478
80 198
80 354
81 485
82 129
82 488
83 489
83 490
83 914
84 436
84 512
84 922
85 247
85 401
85 549
85 550
86 87
87 88
87 554
88 560
88 561
89 564
90 215
90 428
90 429
91 185
91 391
91 568
91 569
92 163
92 575
93 157
93 203
93 522
93 578
94 586
95 220
95 483
95 946
96 222
96 417
97 220
97 223
97 268
97 594
98 99
98 251
98 480
99 100
100 173
100 599
101 174
101 274
101 339
102 177
102 178
102 347
102 471
103 200
103 256
104 170
104 229
104 606
104 622
105 632
105 954
105 955
105 972
106 107
106 458
106 537
106 635
107 236
107 368
107 974
108 159
108 365
108 456
108 823
109 231
109 627
109 641
110 161
110 329
110 646
111 176
111 242
112 388
112 647
113 611
113 968
114 123
114 658
114 750
114 936
115 249
115 555
115 906
116 219
117 251
117 672
117 673
117 675
118 257
118 612
119 685
119 686
119 902
120 267
120 402
120 686
120 687
121 122
121 125
121 212
121 688
122 410
122 689
123 195
123 700
124 125
124 267
124 421
125 188
125 704
126 127
126 214
126 424
126 705
127 214
127 565
128 268
128 590
128 591
128 710
129 270
129 913
130 200
130 354
130 420
130 714
131 132
131 430
131 718
132 682
132 692
133 164
133 308
134 175
134 190
134 721
135 431
135 733
136 169
136 277
136 519
137 618
137 737
137 738
137 970
138 693
138 694
138 741
138 984
139 142
139 741
139 742
139 928
140 141
140 193
140 697
140 743
141 192
141 265
141 744
142 282
142 286
142 745
143 282
143 506
143 715
143 742
144 194
144 283
144 284
144 698
145 146
145 292
145 702
145 756
146 288
146 495
146 496
147 295
147 496
147 497
148 703
148 765
148 766
149 476
149 551
150 151
150 210
150 776
150 889
151 239
151 300
151 890
152 212
152 778
152 779
153 687
153 688
153 780
153 781
154 791
155 308
155 502
155 566
155 567
156 518
156 522
156 792
156 952
157 309
157 579
157 793
158 615
158 769
158 797
158 798
159 803
160 303
160 789
160 807
161 317
161 318
161 387
162 319
162 574
162 808
163 417
163 812
163 813
164 816
164 817
165 268
165 330
165 709
165 830
166 825
166 826
166 832
166 833
167 172
167 242
167 328
167 834
168 274
168 719
168 838
169 734
169 843
170 206
170 844
170 845
171 176
171 326
171 341
171 882
172 341
172 342
172 833
173 345
173 482
173 852
174 499
174 853
175 202
176 237
177 178
178 255
178 348
179 866
179 867
180 375
180 625
180 871
181 243
181 357
182 334
182 335
182 372
183 373
183 378
183 379
184 884
184 887
185 386
186 391
186 392
186 892
187 400
187 900
188 421
189 427
189 917
190 202
190 440
191 265
191 445
191 930
192 445
192 446
193 452
193 649
194 283
194 452
195 935
196 379
196 460
197 397
198 624
198 916
199 263
199 484
200 915
201 272
201 508
201 509
203 523
203 524
204 310
204 525
204 529
205 228
205 281
205 530
206 530
206 531
207 532
208 475
208 476
208 536
209 232
209 459
209 544
210 238
210 548
211 212
211 555
213 552
213 558
215 501
215 567
216 390
216 570
216 571
217 563
218 397
218 585
219 587
219 898
220 590
221 592
221 909
222 483
222 593
223 273
223 418
224 331
224 595
226 278
226 610
226 950
227 616
227 617
227 961
228 619
228 620
229 441
229 623
230 400
230 624
230 901
231 628
232 299
232 543
233 234
233 324
234 371
234 975
235 236
235 537
235 638
236 639
237 465
238 239
239 642
240 241
241 644
243 374
243 648
244 650
245 246
245 662
246 533
246 663
247 302
247 665
248 905
249 554
249 666
250 411
250 667
251 252
252 598
252 676
253 254
253 599
253 676
254 344
255 677
256 678
256 679
257 258
258 473
258 681
259 474
259 683
259 684
260 261
260 422
261 908
262 263
262 691
264 694
264 695
264 929
265 696
266 698
266 699
266 934
269 712
270 425
271 426
272 287
272 288
273 719
274 720
275 276
275 505
275 978
276 948
277 531
277 532
278 279
278 980
279 514
279 981
280 630
280 729
280 735
281 529
281 736
282 442
284 285
284 697
285 286
285 492
286 746
287 715
287 749
288 716
289 290
289 987
290 659
290 757
291 292
291 294
291 757
292 293
293 703
293 758
294 683
294 763
295 535
295 536
296 497
296 770
297 298
297 430
299 772
300 301
300 553
301 642
301 777
302 778
303 369
304 305
304 390
304 790
306 407
308 791
309 310
309 524
310 794
311 584
311 794
311 795
312 313
312 360
312 819
313 455
313 799
314 381
315 316
315 370
316 317
317 573
318 573
319 897
321 322
321 817
322 504
322 818
323 799
323 821
323 822
324 325
325 326
325 372
326 824
327 461
327 824
327 825
328 329
328 826
329 827
330 498
331 513
332 333
332 879
332 994
333 334
333 371
334 335
335 831
336 468
336 835
336 836
337 338
337 399
338 671
339 837
339 838
340 600
340 842
340 995
341 463
342 846
342 965
343 596
343 849
343 850
344 850
344 851
345 910
346 347
346 855
347 856
348 851
349 482
349 857
350 861
350 966
351 366
351 862
351 871
352 864
352 865
353 388
353 868
355 356
355 520
356 359
356 870
357 641
358 505
358 873
358 998
359 873
359 999
360 874
361 362
362 363
363 875
364 365
364 876
366 877
367 368
373 883
374 613
375 885
376 377
376 886
377 378
380 888
382 383
382 891
383 384
384 385
387 893
389 895
392 393
393 394
394 395
395 396
396 896
398 399
402 403
404 405
405 406
406 904
407 408
408 409
410 411
413 414
414 415
418 419
419 420
422 423
423 424
425 426
429 785
431 918
432 433
432 919
433 434
435 921
437 438
438 513
439 924
440 925
442 443
443 444
444 927
446 931
447 448
447 932
449 933
450 451
453 454
453 937
455 938
457 458
457 940
459 941
460 942
461 462
462 943
463 944
464 465
466 945
467 468
469 470
470 471
472 473
474 475
478 479
485 872
486 487
487 488
490 491
491 947
492 493
493 494
494 495
500 501
502 503
503 504
506 507
507 508
509 510
510 511
514 515
515 951
516 517
517 518
520 521
521 953
523 578
525 526
526 527
527 528
528 956
533 534
534 535
538 539
538 957
539 540
540 541
541 542
544 545
545 546
546 547
547 548
550 551
552 553
556 557
558 958
559 560
562 563
564 565
568 960
569 570
571 572
575 576
576 577
579 580
580 581
581 582
582 583
583 584
588 589
593 594
595 962
596 597
597 598
600 601
601 963
602 964
603 604
604 605
605 606
607 608
608 609
609 610
611 612
613 614
614 969
615 616
617 618
619 971
620 621
621 622
625 626
626 627
628 629
629 648
630 631
631 632
633 634
633 973
634 635
636 637
636 976
637 638
639 640
649 650
651 652
652 653
653 654
655 656
656 657
657 658
659 660
660 661
668 669
674 675
677 678
679 680
681 682
684 685
693 977
695 696
700 701
701 702
704 705
706 707
707 708
710 711
711 712
716 717
720 721
722 723
723 861
724 725
725 726
726 727
727 728
728 979
729 730
730 731
731 732
732 926
735 982
736 737
738 739
739 740
740 983
743 985
744 745
746 747
747 748
748 749
750 751
751 752
752 753
753 754
754 755
755 756
758 759
760 761
761 762
762 763
764 765
764 989
767 768
768 769
770 771
772 773
773 774
774 775
775 776
779 780
781 782
782 783
783 784
787 788
788 789
792 793
795 796
796 797
798 991
800 801
800 992
803 804
804 805
805 806
806 807
808 809
809 810
810 811
813 814
814 815
818 993
819 820
820 821
822 823
827 828
831 832
834 835
839 840
840 841
841 842
843 844
847 848
848 849
853 854
858 859
862 863
863 864
865 866
867 868
869 996
870 997
880 881
